Maximize
F 

Subject to
F - 4.0y10 - 2.0y23 - 6.0y11 - 4.0y2 - 6.0y35 - 6.0y7 = 0

x22x11x1 + x22x2x1 + x22x7x1 
<= 1

x22x11x2 + x22x2x2 + x22x35x2 
<= 1


- x10x23x1 - x10x11x1 - x10x2x1 - x10x7x1 
= 0

- x10x23x2 - x10x11x2 - x10x2x2 - x10x35x2 
= 0

x10x23x1 
- x23x0x1
- x23x11x1 - x23x2x1 - x23x7x1 
= 0
x10x23x2 
- x23x0x2
- x23x11x2 - x23x2x2 - x23x35x2 
= 0

x22x11x1 + x10x11x1 + x23x11x1 
- x11x0x1

= 0
x22x11x2 + x10x11x2 + x23x11x2 
- x11x0x2

= 0

x22x2x1 + x10x2x1 + x23x2x1 
- x2x0x1

= 0
x22x2x2 + x10x2x2 + x23x2x2 
- x2x0x2

= 0


x22x35x2 + x10x35x2 + x23x35x2 
- x35x0x2

= 0

x22x7x1 + x10x7x1 + x23x7x1 
- x7x0x1

= 0


1y10 = 0
1y10 = 0
1y23 - x10x23x1 = 0
1y23 - x10x23x2 = 0
1y11 - x22x11x1 - x10x11x1 - x23x11x1 = 0
1y11 - x22x11x2 - x10x11x2 - x23x11x2 = 0
1y2 - x22x2x1 - x10x2x1 - x23x2x1 = 0
1y2 - x22x2x2 - x10x2x2 - x23x2x2 = 0
1y35 - x22x35x2 - x10x35x2 - x23x35x2 = 0
1y7 - x22x7x1 - x10x7x1 - x23x7x1 = 0

s22 - s11 + 8.129485z22z11z1 <= 6.41
s22 - s11 + 8.129485z22z11z2 <= 6.41
s22 - s2 + 8.057725z22z2z1 <= 6.41
s22 - s2 + 8.057725z22z2z2 <= 6.41
s22 - s35 + 8.213043z22z35z2 <= 6.41
s22 - s7 + 8.219490z22z7z1 <= 6.41
s10 - s23 + 8.328259z10z23z1 <= 7.16
s10 - s23 + 8.328259z10z23z2 <= 7.16
s10 - s11 + 8.716976z10z11z1 <= 7.16
s10 - s11 + 8.716976z10z11z2 <= 7.16
s10 - s2 + 8.663940z10z2z1 <= 7.16
s10 - s2 + 8.663940z10z2z2 <= 7.16
s10 - s35 + 8.800035z10z35z2 <= 7.16
s10 - s7 + 8.806975z10z7z1 <= 7.16
s23 - s11 + 8.980867z23z11z1 <= 7.34
s23 - s11 + 8.980867z23z11z2 <= 7.34
s23 - s2 + 8.996489z23z2z1 <= 7.34
s23 - s2 + 8.996489z23z2z2 <= 7.34
s23 - s35 + 9.085356z23z35z2 <= 7.34
s23 - s7 + 9.097099z23z7z1 <= 7.34

x22x11x1 - 1z22z11z1 <= 0
x22x11x2 - 1z22z11z2 <= 0
x22x2x1 - 1z22z2z1 <= 0
x22x2x2 - 1z22z2z2 <= 0
x22x35x2 - 1z22z35z2 <= 0
x22x7x1 - 1z22z7z1 <= 0
x10x23x1 - 1z10z23z1 <= 0
x10x23x2 - 1z10z23z2 <= 0
x10x11x1 - 1z10z11z1 <= 0
x10x11x2 - 1z10z11z2 <= 0
x10x2x1 - 1z10z2z1 <= 0
x10x2x2 - 1z10z2z2 <= 0
x10x35x2 - 1z10z35z2 <= 0
x10x7x1 - 1z10z7z1 <= 0
x10x0x1 <= 1
x10x0x2 <= 1
x23x11x1 - 1z23z11z1 <= 0
x23x11x2 - 1z23z11z2 <= 0
x23x2x1 - 1z23z2z1 <= 0
x23x2x2 - 1z23z2z2 <= 0
x23x35x2 - 1z23z35z2 <= 0
x23x7x1 - 1z23z7z1 <= 0
x23x0x1 <= 1
x23x0x2 <= 1
x11x0x1 <= 1
x11x0x2 <= 1
x2x0x1 <= 1
x2x0x2 <= 1
x35x0x2 <= 1
x7x0x1 <= 1

s23 - 6.00z10z23z1 >= 0
s23 - 6.00z10z23z2 >= 0
s11 - 6.00z22z11z1 >= 0
s11 - 6.00z22z11z2 >= 0
s11 - 6.00z10z11z1 >= 0
s11 - 6.00z10z11z2 >= 0
s11 - 6.00z23z11z1 >= 0
s11 - 6.00z23z11z2 >= 0
s2 - 6.00z22z2z1 >= 0
s2 - 6.00z22z2z2 >= 0
s2 - 6.00z10z2z1 >= 0
s2 - 6.00z10z2z2 >= 0
s2 - 6.00z23z2z1 >= 0
s2 - 6.00z23z2z2 >= 0
s35 - 6.00z22z35z2 >= 0
s35 - 6.00z10z35z2 >= 0
s35 - 6.00z23z35z2 >= 0
s7 - 6.00z22z7z1 >= 0
s7 - 6.00z10z7z1 >= 0
s7 - 6.00z23z7z1 >= 0

Bounds
s22 = 6.406129
6.160000 <= s10 <= 7.160000
6.340000 <= s23 <= 7.340000
8.190000 <= s11 <= 9.190000
8.230000 <= s2 <= 9.230000
8.250000 <= s35 <= 9.250000
8.260000 <= s7 <= 9.260000

General
x22x11x1 x22x11x2 x22x2x1 x22x2x2 x22x35x2 x22x7x1 
x10x23x1 x10x23x2 x10x11x1 x10x11x2 x10x2x1 x10x2x2 x10x35x2 x10x7x1 x10x0x1 x10x0x2 
x23x11x1 x23x11x2 x23x2x1 x23x2x2 x23x35x2 x23x7x1 x23x0x1 x23x0x2 
x11x0x1 x11x0x2 
x2x0x1 x2x0x2 
x35x0x2 
x7x0x1 

Binaries
y10 y23 y11 y2 y35 y7 
z22z11z1 z22z11z2 z22z2z1 z22z2z2 z22z35z2 z22z7z1 
z10z23z1 z10z23z2 z10z11z1 z10z11z2 z10z2z1 z10z2z2 z10z35z2 z10z7z1 
z23z11z1 z23z11z2 z23z2z1 z23z2z2 z23z35z2 z23z7z1 





End